Set parameter Username
Academic license - for non-commercial use only - expires 2024-05-10
Set parameter TimeLimit to value 3600
Set parameter TimeLimit to value 3600
Gurobi Optimizer version 10.0.0 build v10.0.0rc2 (linux64)

CPU model: AMD Ryzen 7 5700U with Radeon Graphics, instruction set [SSE2|AVX|AVX2]
Thread count: 8 physical cores, 16 logical processors, using up to 16 threads

Optimize a model with 1275 rows, 1260 columns and 3079 nonzeros
Model fingerprint: 0xabd1745e
Variable types: 765 continuous, 495 integer (495 binary)
Coefficient statistics:
  Matrix range     [1e+00, 1e+03]
  Objective range  [5e+00, 2e+04]
  Bounds range     [1e+00, 1e+00]
  RHS range        [1e+00, 5e+01]
Found heuristic solution: objective 591772.00000
Presolve removed 855 rows and 505 columns
Presolve time: 0.00s
Presolved: 420 rows, 755 columns, 1691 nonzeros
Variable types: 650 continuous, 105 integer (105 binary)
Found heuristic solution: objective 511568.00000

Root relaxation: objective 4.065770e+05, 607 iterations, 0.00 seconds (0.00 work units)

    Nodes    |    Current Node    |     Objective Bounds      |     Work
 Expl Unexpl |  Obj  Depth IntInf | Incumbent    BestBd   Gap | It/Node Time

     0     0 406577.015    0   41 511568.000 406577.015  20.5%     -    0s
H    0     0                    445895.40000 406577.015  8.82%     -    0s
H    0     0                    432882.40000 406577.015  6.08%     -    0s
     0     0 410508.084    0   42 432882.400 410508.084  5.17%     -    0s
     0     0 413326.594    0   42 432882.400 413326.594  4.52%     -    0s
H    0     0                    432304.64955 413326.594  4.39%     -    0s
     0     0 414372.545    0   39 432304.650 414372.545  4.15%     -    0s
H    0     0                    418135.63200 414372.545  0.90%     -    0s
     0     0 414449.017    0   41 418135.632 414449.017  0.88%     -    0s
H    0     0                    418080.60000 414449.017  0.87%     -    0s
     0     0 418080.600    0   43 418080.600 418080.600  0.00%     -    0s

Cutting planes:
  Gomory: 4
  MIR: 18
  RLT: 1

Explored 1 nodes (741 simplex iterations) in 0.03 seconds (0.02 work units)
Thread count was 16 (of 16 available processors)

Solution count 7: 418081 418136 432305 ... 591772

Optimal solution found (tolerance 1.00e-04)
Best objective 4.180806000000e+05, best bound 4.180806000000e+05, gap 0.0000%

User-callback calls 440, time in user-callback 0.00 sec
p = 25
t = 15

--------------------------------------------------INSTANCE 1-----------------------------------------------------------

alpha = 0.8

MILP_obj = 418080.6
Temps de résolution MILP = 0.0331120491027832s
Matrice x : 
2-dimensional DenseAxisArray{Float64,2,...} with index sets:
    Dimension 1, 1:25
    Dimension 2, 1:15
And data, a 25×15 Matrix{Float64}:
 47.0   4.0  38.0   0.0  14.0  45.0  36.0   9.0    0.0    0.0    7.0  38.0  34.0   63.0   0.0
 49.0   4.0  44.0   3.0   5.0   3.0  16.0   5.0   27.0   35.0    1.0   0.0  36.0    0.0  26.0
  0.0   9.0  25.0  19.0  15.0  35.0  30.0  63.0    0.0    7.0   30.0   3.0   9.0   13.0  47.0
  2.0  12.0   8.0  28.0  39.0  40.0  14.0  43.0    0.0    3.0   31.0  45.0   8.0   28.0   0.0
  4.0  31.0  24.0  12.0  45.0   3.0  37.0  13.0   19.0   15.0   18.0  32.0  23.0   34.0  18.0
 26.0  26.0  28.0   6.0  19.0  21.0  41.0   6.0   38.0   45.0    9.0  34.0  22.0   38.4  14.6
 28.0  20.0  11.0  13.0   9.0   9.0  31.0  15.0   34.0   28.0   31.0  14.0  36.0    0.0  37.0
  0.0   6.0  32.0   0.0  29.0  43.0  48.0  18.0    0.0   35.0   40.0  27.0   6.0   14.0  22.0
 43.0  28.0  34.0  23.0  47.0  18.0  33.0  22.0   24.0    0.0    1.0  37.0   0.0   49.0   8.0
 26.0   1.0  28.0  39.0  29.0   6.0  38.0  40.0    1.0   31.0   22.0   8.0   8.28   0.0   5.72
 26.0   0.0  36.0   1.0  11.0   4.0   2.0  11.0   10.0    4.0    8.0  29.0  16.0    0.0  30.0
 37.0  13.0  14.0  26.0   6.0  11.0  21.0   6.0   35.0    3.0   38.0   0.0  11.0   31.0  38.0
  0.0   6.0  18.0  39.0   7.0  27.0   1.0  43.0   29.0   12.0    3.0   7.0  39.0   26.0  15.0
 17.0  25.0   8.0  44.0   0.0  21.0   0.0  22.28  31.72  44.0   43.0  40.0  20.0   11.0  30.0
  4.0  14.0  19.0  18.0   6.0  13.0  38.0  22.0   50.68  10.32  11.0  47.0  10.0   18.0  29.0
 28.0   5.0  25.0  19.0  15.0  46.0  20.0   1.0   18.0   49.0   16.0  20.0  43.0    0.0   4.0
 16.0  12.0  47.0  20.0   0.0  46.0  14.0  42.0   48.0   39.0   37.0  44.0   0.0   47.0  33.0
 37.0  15.0  27.0  38.0  14.0   0.0  22.0   1.0   26.0    0.0    9.0  33.0  11.0   45.0   6.0
 13.0   0.0  41.0   7.0   2.0  42.0  25.0  20.0   34.0   33.0   17.0  33.0  19.0   38.0   0.0
 24.0  45.0   4.0   1.0  14.0  47.0  45.0  15.0   11.0    0.0   25.0  19.0  34.0    0.0  15.0
  1.0  10.0  37.0  34.0  26.0  27.0  30.0  31.0   29.0    6.0   12.0  26.0   0.0   42.0  33.0
 34.0  17.0  16.0  25.0  15.0   3.0  48.0  34.0   17.0    0.0    6.0   5.0  34.0   38.0   0.0
  8.0   5.0  16.0  18.0   0.0  36.0   0.0  16.0    0.0    2.0   45.0   9.0  20.0   15.0  29.0
 27.0  22.0  32.0  21.0  29.0  24.0  26.0  15.0   10.0   39.0   14.0  15.0  97.0    0.0   0.0
 20.0  48.0  28.0   5.0   6.0  46.0  26.0  14.0   58.0    0.0   41.0  17.0  60.0    0.0   0.0
Matrice I : 
2-dimensional DenseAxisArray{Float64,2,...} with index sets:
    Dimension 1, 1:25
    Dimension 2, 1:15
And data, a 25×15 Matrix{Float64}:
 0.0  0.0  0.0  0.0  0.0  0.0  0.0   0.0    0.0   0.0  0.0  0.0   0.0   22.0   0.0
 0.0  0.0  0.0  0.0  0.0  0.0  0.0   0.0    0.0   0.0  0.0  0.0  36.0    0.0   0.0
 0.0  0.0  0.0  0.0  0.0  0.0  0.0  21.0    0.0   0.0  0.0  0.0   0.0    0.0   0.0
 0.0  0.0  0.0  0.0  0.0  0.0  0.0   7.0    0.0   0.0  0.0  0.0   0.0   26.0   0.0
 0.0  0.0  0.0  0.0  0.0  0.0  0.0   0.0    0.0   0.0  0.0  0.0   0.0    0.0   0.0
 0.0  0.0  0.0  0.0  0.0  0.0  0.0   0.0    0.0   0.0  0.0  0.0   0.0   30.4   0.0
 0.0  0.0  0.0  0.0  0.0  0.0  0.0   0.0    0.0   0.0  0.0  0.0  10.0    0.0   0.0
 0.0  0.0  0.0  0.0  0.0  0.0  0.0  18.0    0.0   0.0  0.0  0.0   0.0    0.0   0.0
 0.0  0.0  0.0  0.0  0.0  0.0  0.0   0.0    8.0   0.0  0.0  0.0   0.0    0.0   0.0
 0.0  0.0  0.0  0.0  0.0  0.0  0.0   0.0    0.0   0.0  0.0  0.0   3.28   0.28  0.0
 0.0  0.0  0.0  0.0  0.0  0.0  0.0   0.0    0.0   0.0  0.0  0.0   0.0    0.0   0.0
 0.0  0.0  0.0  0.0  0.0  0.0  0.0   0.0    0.0   0.0  0.0  0.0   0.0    0.0   0.0
 0.0  0.0  0.0  0.0  0.0  0.0  0.0   0.0    0.0   0.0  0.0  0.0   0.0    0.0   0.0
 0.0  0.0  0.0  0.0  0.0  0.0  0.0   1.28   0.0   0.0  0.0  0.0   0.0    0.0   0.0
 0.0  0.0  0.0  0.0  0.0  0.0  0.0   0.0   28.68  0.0  0.0  0.0   0.0    0.0   0.0
 0.0  0.0  0.0  0.0  0.0  0.0  0.0   0.0    0.0   0.0  0.0  0.0  11.0    0.0   0.0
 0.0  0.0  0.0  0.0  0.0  0.0  0.0   0.0    0.0   0.0  0.0  0.0   0.0    0.0   0.0
 0.0  0.0  0.0  0.0  0.0  0.0  0.0   0.0    0.0   0.0  0.0  0.0   0.0    0.0   0.0
 0.0  0.0  0.0  0.0  0.0  0.0  0.0   0.0    0.0   0.0  0.0  0.0   0.0   18.0   0.0
 0.0  0.0  0.0  0.0  0.0  0.0  0.0   0.0    0.0   0.0  0.0  0.0  29.0    0.0   0.0
 0.0  0.0  0.0  0.0  0.0  0.0  0.0   0.0    0.0   0.0  0.0  0.0   0.0    0.0   0.0
 0.0  0.0  0.0  0.0  0.0  0.0  0.0   0.0    0.0   0.0  0.0  0.0   0.0    4.0   0.0
 0.0  0.0  0.0  0.0  0.0  0.0  0.0   0.0    0.0   0.0  0.0  0.0   0.0    0.0   0.0
 0.0  0.0  0.0  0.0  0.0  0.0  0.0   0.0    0.0   0.0  0.0  0.0  94.0   46.0   0.0
 0.0  0.0  0.0  0.0  0.0  0.0  0.0   0.0   30.0   0.0  0.0  0.0  35.0    0.0   0.0

Nombre de maintenance : 3.0
Plan de maintenance optimal : 
[1.0, -0.0, -0.0, -0.0, -0.0, 1.0, 0.0, -0.0, 0.0, -0.0, 1.0, -0.0, -0.0, -0.0, -0.0]
Nombre de setup par produit : 
Any[15.0, 15.0, 15.0, 15.0, 15.0, 15.0, 15.0, 15.0, 15.0, 15.0, 15.0, 15.0, 15.0, 15.0, 15.0, 15.0, 15.0, 15.0, 15.0, 15.0, 15.0, 15.0, 15.0, 15.0, 15.0]
